data/lp_files/pEFS/43_6.lp
\ Model foo
\ LP format - for model browsing. Use MPS format to capture full model detail.
Minimize
  z
Subject To
 allocateEach[1]: x[1,1] + x[2,1] + x[3,1] = 1
 allocateEach[2]: x[1,2] + x[2,2] + x[3,2] = 1
 allocateEach[3]: x[1,3] + x[2,3] + x[3,3] = 1
 allocateAllCash: cashProportion[1] + cashProportion[2] + cashProportion[3]
   = 1
 findWorstP[1,2]: z + 0.1424298532972511 cashProportion[1]
   - 0.1424298532972511 cashProportion[2] + 0.3389118359208089 x[1,1]
   + 0.3127047429141148 x[1,2] + 0.2059535678678251 x[1,3]
   - 0.3389118359208089 x[2,1] - 0.3127047429141148 x[2,2]
   - 0.2059535678678251 x[2,3] >= 0
 findWorstP[1,3]: z + 0.1424298532972511 cashProportion[1]
   - 0.1424298532972511 cashProportion[3] + 0.3389118359208089 x[1,1]
   + 0.3127047429141148 x[1,2] + 0.2059535678678251 x[1,3]
   - 0.3389118359208089 x[3,1] - 0.3127047429141148 x[3,2]
   - 0.2059535678678251 x[3,3] >= 0
 findWorstP[2,1]: z - 0.1885014137606032 cashProportion[1]
   + 0.1885014137606032 cashProportion[2] - 0.0120640904806786 x[1,1]
   - 0.4079170593779454 x[1,2] - 0.3915174363807729 x[1,3]
   + 0.0120640904806786 x[2,1] + 0.4079170593779454 x[2,2]
   + 0.3915174363807729 x[2,3] >= 0
 findWorstP[2,3]: z + 0.1885014137606032 cashProportion[2]
   - 0.1885014137606032 cashProportion[3] + 0.0120640904806786 x[2,1]
   + 0.4079170593779454 x[2,2] + 0.3915174363807729 x[2,3]
   - 0.0120640904806786 x[3,1] - 0.4079170593779454 x[3,2]
   - 0.3915174363807729 x[3,3] >= 0
 findWorstP[3,1]: z - 0.215633423180593 cashProportion[1]
   + 0.215633423180593 cashProportion[3] - 0.1955256064690027 x[1,1]
   - 0.3444204851752021 x[1,2] - 0.2444204851752022 x[1,3]
   + 0.1955256064690027 x[3,1] + 0.3444204851752021 x[3,2]
   + 0.2444204851752022 x[3,3] >= 0
 findWorstP[3,2]: z - 0.215633423180593 cashProportion[2]
   + 0.215633423180593 cashProportion[3] - 0.1955256064690027 x[2,1]
   - 0.3444204851752021 x[2,2] - 0.2444204851752022 x[2,3]
   + 0.1955256064690027 x[3,1] + 0.3444204851752021 x[3,2]
   + 0.2444204851752022 x[3,3] >= 0
Bounds
 z <= 1
 -infinity <= cashProportion[1] <= 1
 -infinity <= cashProportion[2] <= 1
 -infinity <= cashProportion[3] <= 1
Binaries
 x[1,1] x[1,2] x[1,3] x[2,1] x[2,2] x[2,3] x[3,1] x[3,2] x[3,3]
End
