data/mps_files/pEFS/43_6.mps
NAME foo
ROWS
 N  OBJ
 E  allocateEach[1]
 E  allocateEach[2]
 E  allocateEach[3]
 E  allocateAllCash
 G  findWorstP[1,2]
 G  findWorstP[1,3]
 G  findWorstP[2,1]
 G  findWorstP[2,3]
 G  findWorstP[3,1]
 G  findWorstP[3,2]
COLUMNS
    z         OBJ       1
    z         findWorstP[1,2]  1
    z         findWorstP[1,3]  1
    z         findWorstP[2,1]  1
    z         findWorstP[2,3]  1
    z         findWorstP[3,1]  1
    z         findWorstP[3,2]  1
    cashProportion[1]  allocateAllCash  1
    cashProportion[1]  findWorstP[1,2]  1.4242985329725108e-01
    cashProportion[1]  findWorstP[1,3]  1.4242985329725108e-01
    cashProportion[1]  findWorstP[2,1]  -1.8850141376060323e-01
    cashProportion[1]  findWorstP[3,1]  -2.1563342318059298e-01
    cashProportion[2]  allocateAllCash  1
    cashProportion[2]  findWorstP[1,2]  -1.4242985329725108e-01
    cashProportion[2]  findWorstP[2,1]  1.8850141376060323e-01
    cashProportion[2]  findWorstP[2,3]  1.8850141376060323e-01
    cashProportion[2]  findWorstP[3,2]  -2.1563342318059298e-01
    cashProportion[3]  allocateAllCash  1
    cashProportion[3]  findWorstP[1,3]  -1.4242985329725108e-01
    cashProportion[3]  findWorstP[2,3]  -1.8850141376060323e-01
    cashProportion[3]  findWorstP[3,1]  2.1563342318059298e-01
    cashProportion[3]  findWorstP[3,2]  2.1563342318059298e-01
    MARKER    'MARKER'                 'INTORG'
    x[1,1]    allocateEach[1]  1
    x[1,1]    findWorstP[1,2]  3.3891183592080892e-01
    x[1,1]    findWorstP[1,3]  3.3891183592080892e-01
    x[1,1]    findWorstP[2,1]  -1.2064090480678606e-02
    x[1,1]    findWorstP[3,1]  -1.9552560646900269e-01
    x[1,2]    allocateEach[2]  1
    x[1,2]    findWorstP[1,2]  3.1270474291411476e-01
    x[1,2]    findWorstP[1,3]  3.1270474291411476e-01
    x[1,2]    findWorstP[2,1]  -4.0791705937794537e-01
    x[1,2]    findWorstP[3,1]  -3.4442048517520213e-01
    x[1,3]    allocateEach[3]  1
    x[1,3]    findWorstP[1,2]  2.0595356786782507e-01
    x[1,3]    findWorstP[1,3]  2.0595356786782507e-01
    x[1,3]    findWorstP[2,1]  -3.9151743638077285e-01
    x[1,3]    findWorstP[3,1]  -2.4442048517520215e-01
    x[2,1]    allocateEach[1]  1
    x[2,1]    findWorstP[1,2]  -3.3891183592080892e-01
    x[2,1]    findWorstP[2,1]  1.2064090480678606e-02
    x[2,1]    findWorstP[2,3]  1.2064090480678606e-02
    x[2,1]    findWorstP[3,2]  -1.9552560646900269e-01
    x[2,2]    allocateEach[2]  1
    x[2,2]    findWorstP[1,2]  -3.1270474291411476e-01
    x[2,2]    findWorstP[2,1]  4.0791705937794537e-01
    x[2,2]    findWorstP[2,3]  4.0791705937794537e-01
    x[2,2]    findWorstP[3,2]  -3.4442048517520213e-01
    x[2,3]    allocateEach[3]  1
    x[2,3]    findWorstP[1,2]  -2.0595356786782507e-01
    x[2,3]    findWorstP[2,1]  3.9151743638077285e-01
    x[2,3]    findWorstP[2,3]  3.9151743638077285e-01
    x[2,3]    findWorstP[3,2]  -2.4442048517520215e-01
    x[3,1]    allocateEach[1]  1
    x[3,1]    findWorstP[1,3]  -3.3891183592080892e-01
    x[3,1]    findWorstP[2,3]  -1.2064090480678606e-02
    x[3,1]    findWorstP[3,1]  1.9552560646900269e-01
    x[3,1]    findWorstP[3,2]  1.9552560646900269e-01
    x[3,2]    allocateEach[2]  1
    x[3,2]    findWorstP[1,3]  -3.1270474291411476e-01
    x[3,2]    findWorstP[2,3]  -4.0791705937794537e-01
    x[3,2]    findWorstP[3,1]  3.4442048517520213e-01
    x[3,2]    findWorstP[3,2]  3.4442048517520213e-01
    x[3,3]    allocateEach[3]  1
    x[3,3]    findWorstP[1,3]  -2.0595356786782507e-01
    x[3,3]    findWorstP[2,3]  -3.9151743638077285e-01
    x[3,3]    findWorstP[3,1]  2.4442048517520215e-01
    x[3,3]    findWorstP[3,2]  2.4442048517520215e-01
    MARKER    'MARKER'                 'INTEND'
RHS
    RHS1      allocateEach[1]  1
    RHS1      allocateEach[2]  1
    RHS1      allocateEach[3]  1
    RHS1      allocateAllCash  1
BOUNDS
 UP BND1      z         1
 MI BND1      cashProportion[1]
 UP BND1      cashProportion[1]  1
 MI BND1      cashProportion[2]
 UP BND1      cashProportion[2]  1
 MI BND1      cashProportion[3]
 UP BND1      cashProportion[3]  1
 BV BND1      x[1,1]  
 BV BND1      x[1,2]  
 BV BND1      x[1,3]  
 BV BND1      x[2,1]  
 BV BND1      x[2,2]  
 BV BND1      x[2,3]  
 BV BND1      x[3,1]  
 BV BND1      x[3,2]  
 BV BND1      x[3,3]  
ENDATA
